NAME : rand624806
COMMENT: random generated with id 624806
TYPE : TSP
DIMENSION : 6
EDGE_WEIGHT_TYPE : EUC_2D
NODE_COORD_SECTION
1 3.334082 3.591817
2 4.817307 1.445797
3 0.228978 2.486679
4 2.435076 2.073097
5 0.197228 3.007029
6 1.614017 1.257570
EOF
